p edge 104 331
e 1 2
e 1 3
e 1 4
e 1 5
e 2 3
e 2 4
e 2 5
e 2 7
e 3 4
e 3 7
e 3 8
e 4 5
e 4 6
e 4 7
e 4 8
e 4 9
e 4 10
e 4 11
e 4 12
e 4 13
e 5 6
e 5 11
e 5 12
e 6 11
e 6 12
e 6 13
e 7 8
e 7 16
e 7 17
e 8 9
e 8 10
e 8 11
e 8 12
e 8 16
e 8 17
e 8 18
e 8 19
e 8 20
e 9 10
e 9 11
e 9 12
e 9 20
e 9 21
e 10 11
e 10 12
e 10 18
e 10 19
e 10 20
e 10 22
e 10 23
e 11 12
e 11 13
e 11 20
e 12 13
e 12 14
e 12 21
e 12 24
e 13 14
e 13 21
e 14 15
e 14 21
e 14 24
e 14 25
e 15 25
e 15 26
e 15 35
e 16 17
e 17 18
e 17 19
e 17 27
e 17 28
e 18 19
e 18 27
e 18 28
e 18 29
e 19 22
e 19 29
e 19 30
e 20 21
e 20 22
e 20 23
e 20 24
e 21 23
e 21 24
e 21 25
e 22 23
e 22 30
e 22 31
e 22 32
e 23 24
e 23 32
e 23 33
e 23 42
e 24 25
e 24 33
e 25 26
e 25 33
e 25 34
e 26 33
e 26 34
e 26 35
e 27 28
e 27 36
e 27 37
e 27 47
e 27 48
e 28 29
e 28 36
e 28 37
e 28 38
e 28 39
e 29 30
e 29 38
e 29 39
e 30 31
e 30 39
e 31 32
e 31 39
e 31 40
e 31 42
e 31 50
e 32 33
e 32 42
e 33 34
e 33 35
e 33 42
e 34 35
e 34 42
e 34 43
e 34 44
e 35 43
e 35 44
e 36 37
e 36 47
e 36 48
e 36 56
e 37 38
e 37 48
e 37 49
e 37 50
e 37 58
e 38 39
e 38 49
e 38 50
e 39 40
e 39 50
e 39 51
e 40 41
e 40 42
e 40 50
e 40 51
e 40 52
e 41 42
e 41 43
e 41 45
e 41 52
e 41 53
e 42 43
e 42 45
e 43 44
e 43 45
e 44 45
e 44 46
e 45 46
e 45 52
e 45 53
e 45 54
e 46 53
e 46 54
e 46 55
e 47 48
e 47 56
e 47 57
e 47 65
e 47 66
e 48 49
e 48 56
e 48 57
e 48 58
e 49 50
e 49 58
e 49 59
e 49 68
e 50 51
e 50 59
e 51 52
e 51 59
e 51 60
e 51 61
e 52 53
e 52 60
e 52 61
e 53 54
e 53 61
e 53 62
e 54 55
e 54 61
e 54 62
e 54 63
e 54 64
e 55 63
e 55 64
e 56 57
e 56 65
e 56 66
e 57 58
e 57 66
e 57 67
e 57 68
e 57 77
e 58 59
e 58 67
e 58 68
e 59 60
e 59 68
e 59 70
e 59 71
e 60 61
e 60 62
e 60 71
e 60 72
e 61 62
e 61 72
e 62 63
e 62 72
e 62 73
e 62 74
e 63 64
e 63 74
e 63 75
e 64 75
e 65 66
e 65 76
e 65 77
e 66 67
e 66 76
e 66 77
e 67 68
e 67 69
e 67 70
e 67 77
e 68 69
e 68 70
e 69 70
e 69 77
e 69 78
e 69 79
e 70 71
e 70 79
e 70 80
e 71 72
e 71 80
e 71 81
e 71 83
e 72 73
e 72 81
e 73 74
e 73 81
e 73 82
e 73 87
e 74 75
e 76 77
e 76 78
e 77 78
e 77 79
e 78 79
e 78 84
e 79 80
e 79 84
e 80 81
e 80 83
e 80 84
e 80 85
e 81 82
e 81 83
e 82 83
e 82 87
e 83 85
e 83 86
e 83 87
e 84 85
e 85 86
e 85 91
e 85 93
e 86 87
e 86 88
e 86 89
e 86 90
e 86 91
e 86 93
e 87 88
e 87 89
e 88 89
e 88 90
e 88 91
e 89 90
e 89 91
e 90 91
e 90 92
e 90 93
e 91 92
e 91 93
e 92 93
e 92 94
e 93 94
e 93 95
e 93 96
e 94 95
e 94 96
e 94 97
e 95 96
e 95 97
e 96 97
e 96 98
e 97 98
e 97 99
e 98 99
e 98 100
e 98 101
e 99 100
e 99 101
e 99 102
e 100 101
e 100 102
e 100 104
e 101 102
e 101 103
e 101 104
e 102 103
e 102 104
e 103 104
